p cnf 327 805
a 1 2 3 4 5 6 7 8 9 10 11 12 13 14 15 16 17 18 19 20 21 22 23 24 25 26 27 28 29 30 31 32 33 34 35 36 37 38 39 40 41 42 43 44 45 46 47 48 49 50 51 52 53 54 55 56 57 58 59 60 61 62 63 64 0
e 65 66 67 68 69 70 71 72 73 74 75 76 77 78 79 80 81 82 83 84 85 86 87 88 89 90 91 92 93 94 95 96 97 98 99 100 101 102 103 104 105 106 107 108 109 110 111 112 113 114 115 116 117 118 119 120 121 122 123 124 125 126 127 128 129 130 131 132 133 134 135 136 137 138 139 140 141 142 143 144 145 146 147 148 149 150 151 152 153 154 155 156 157 158 159 160 161 162 163 164 165 166 167 168 169 170 171 172 173 174 175 176 177 178 179 180 181 182 183 184 185 186 187 188 189 190 191 192 193 194 195 196 197 198 199 200 201 202 203 204 205 206 207 208 209 210 211 212 213 214 215 216 217 218 219 220 221 222 223 224 225 226 227 228 229 230 231 232 233 234 235 236 237 238 239 240 241 242 243 244 245 246 247 248 249 250 251 252 253 254 255 256 257 258 259 260 261 262 263 264 265 266 267 268 269 270 271 272 273 274 275 276 277 278 279 280 281 282 283 284 285 286 287 288 289 290 291 292 293 294 295 296 297 298 299 300 301 302 303 304 305 306 307 308 309 310 311 312 313 314 315 316 317 318 319 320 321 322 323 324 325 0
65 1 -2 3 4 5 6 7 8 9 10 11 12 13 14 15 16 17 18 19 20 21 22 23 24 25 26 27 28 29 30 31 32 0
-65 -32 0
-65 -31 0
-65 -30 0
-65 -29 0
-65 -28 0
-65 -27 0
-65 -26 0
-65 -25 0
-65 -24 0
-65 -23 0
-65 -22 0
-65 -21 0
-65 -20 0
-65 -19 0
-65 -18 0
-65 -17 0
-65 -16 0
-65 -15 0
-65 -14 0
-65 -13 0
-65 -12 0
-65 -11 0
-65 -10 0
-65 -9 0
-65 -8 0
-65 -7 0
-65 -6 0
-65 -5 0
-65 -4 0
-65 -3 0
-65 2 0
-65 -1 0
66 -33 34 35 36 37 38 39 40 41 42 43 44 45 46 47 48 49 50 51 52 53 54 55 56 57 58 59 60 61 62 63 64 0
-66 -64 0
-66 -63 0
-66 -62 0
-66 -61 0
-66 -60 0
-66 -59 0
-66 -58 0
-66 -57 0
-66 -56 0
-66 -55 0
-66 -54 0
-66 -53 0
-66 -52 0
-66 -51 0
-66 -50 0
-66 -49 0
-66 -48 0
-66 -47 0
-66 -46 0
-66 -45 0
-66 -44 0
-66 -43 0
-66 -42 0
-66 -41 0
-66 -40 0
-66 -39 0
-66 -38 0
-66 -37 0
-66 -36 0
-66 -35 0
-66 -34 0
-66 33 0
67 -65 -66 0
-67 66 0
-67 65 0
68 1 -33 0
-68 -1 0
-68 33 0
69 1 0
69 -33 0
69 -68 0
-69 -1 33 68 0
70 2 -34 0
-70 -2 0
-70 34 0
71 -34 -69 0
-71 69 0
-71 34 0
72 2 -69 0
-72 69 0
-72 -2 0
73 -72 0
73 -71 0
73 -70 0
-73 70 71 72 0
74 3 -35 0
-74 -3 0
-74 35 0
75 -35 -73 0
-75 73 0
-75 35 0
76 3 -73 0
-76 73 0
-76 -3 0
77 -76 0
77 -75 0
77 -74 0
-77 74 75 76 0
78 4 -36 0
-78 -4 0
-78 36 0
79 -36 -77 0
-79 77 0
-79 36 0
80 4 -77 0
-80 77 0
-80 -4 0
81 -80 0
81 -79 0
81 -78 0
-81 78 79 80 0
82 5 -37 0
-82 -5 0
-82 37 0
83 -37 -81 0
-83 81 0
-83 37 0
84 5 -81 0
-84 81 0
-84 -5 0
85 -84 0
85 -83 0
85 -82 0
-85 82 83 84 0
86 6 -38 0
-86 -6 0
-86 38 0
87 -38 -85 0
-87 85 0
-87 38 0
88 6 -85 0
-88 85 0
-88 -6 0
89 -88 0
89 -87 0
89 -86 0
-89 86 87 88 0
90 7 -39 0
-90 -7 0
-90 39 0
91 -39 -89 0
-91 89 0
-91 39 0
92 7 -89 0
-92 89 0
-92 -7 0
93 -92 0
93 -91 0
93 -90 0
-93 90 91 92 0
94 8 -40 0
-94 -8 0
-94 40 0
95 -40 -93 0
-95 93 0
-95 40 0
96 8 -93 0
-96 93 0
-96 -8 0
97 -96 0
97 -95 0
97 -94 0
-97 94 95 96 0
98 9 -41 0
-98 -9 0
-98 41 0
99 -41 -97 0
-99 97 0
-99 41 0
100 9 -97 0
-100 97 0
-100 -9 0
101 -100 0
101 -99 0
101 -98 0
-101 98 99 100 0
102 10 -42 0
-102 -10 0
-102 42 0
103 -42 -101 0
-103 101 0
-103 42 0
104 10 -101 0
-104 101 0
-104 -10 0
105 -104 0
105 -103 0
105 -102 0
-105 102 103 104 0
106 11 -43 0
-106 -11 0
-106 43 0
107 -43 -105 0
-107 105 0
-107 43 0
108 11 -105 0
-108 105 0
-108 -11 0
109 -108 0
109 -107 0
109 -106 0
-109 106 107 108 0
110 12 -44 0
-110 -12 0
-110 44 0
111 -44 -109 0
-111 109 0
-111 44 0
112 12 -109 0
-112 109 0
-112 -12 0
113 -112 0
113 -111 0
113 -110 0
-113 110 111 112 0
114 13 -45 0
-114 -13 0
-114 45 0
115 -45 -113 0
-115 113 0
-115 45 0
116 13 -113 0
-116 113 0
-116 -13 0
117 -116 0
117 -115 0
117 -114 0
-117 114 115 116 0
118 14 -46 0
-118 -14 0
-118 46 0
119 -46 -117 0
-119 117 0
-119 46 0
120 14 -117 0
-120 117 0
-120 -14 0
121 -120 0
121 -119 0
121 -118 0
-121 118 119 120 0
122 15 -47 0
-122 -15 0
-122 47 0
123 -47 -121 0
-123 121 0
-123 47 0
124 15 -121 0
-124 121 0
-124 -15 0
125 -124 0
125 -123 0
125 -122 0
-125 122 123 124 0
126 16 -48 0
-126 -16 0
-126 48 0
127 -48 -125 0
-127 125 0
-127 48 0
128 16 -125 0
-128 125 0
-128 -16 0
129 -128 0
129 -127 0
129 -126 0
-129 126 127 128 0
130 17 -49 0
-130 -17 0
-130 49 0
131 -49 -129 0
-131 129 0
-131 49 0
132 17 -129 0
-132 129 0
-132 -17 0
133 -132 0
133 -131 0
133 -130 0
-133 130 131 132 0
134 18 -50 0
-134 -18 0
-134 50 0
135 -50 -133 0
-135 133 0
-135 50 0
136 18 -133 0
-136 133 0
-136 -18 0
137 -136 0
137 -135 0
137 -134 0
-137 134 135 136 0
138 19 -51 0
-138 -19 0
-138 51 0
139 -51 -137 0
-139 137 0
-139 51 0
140 19 -137 0
-140 137 0
-140 -19 0
141 -140 0
141 -139 0
141 -138 0
-141 138 139 140 0
142 20 -52 0
-142 -20 0
-142 52 0
143 -52 -141 0
-143 141 0
-143 52 0
144 20 -141 0
-144 141 0
-144 -20 0
145 -144 0
145 -143 0
145 -142 0
-145 142 143 144 0
146 21 -53 0
-146 -21 0
-146 53 0
147 -53 -145 0
-147 145 0
-147 53 0
148 21 -145 0
-148 145 0
-148 -21 0
149 -148 0
149 -147 0
149 -146 0
-149 146 147 148 0
150 22 -54 0
-150 -22 0
-150 54 0
151 -54 -149 0
-151 149 0
-151 54 0
152 22 -149 0
-152 149 0
-152 -22 0
153 -152 0
153 -151 0
153 -150 0
-153 150 151 152 0
154 23 -55 0
-154 -23 0
-154 55 0
155 -55 -153 0
-155 153 0
-155 55 0
156 23 -153 0
-156 153 0
-156 -23 0
157 -156 0
157 -155 0
157 -154 0
-157 154 155 156 0
158 24 -56 0
-158 -24 0
-158 56 0
159 -56 -157 0
-159 157 0
-159 56 0
160 24 -157 0
-160 157 0
-160 -24 0
161 -160 0
161 -159 0
161 -158 0
-161 158 159 160 0
162 25 -57 0
-162 -25 0
-162 57 0
163 -57 -161 0
-163 161 0
-163 57 0
164 25 -161 0
-164 161 0
-164 -25 0
165 -164 0
165 -163 0
165 -162 0
-165 162 163 164 0
166 26 -58 0
-166 -26 0
-166 58 0
167 -58 -165 0
-167 165 0
-167 58 0
168 26 -165 0
-168 165 0
-168 -26 0
169 -168 0
169 -167 0
169 -166 0
-169 166 167 168 0
170 27 -59 0
-170 -27 0
-170 59 0
171 -59 -169 0
-171 169 0
-171 59 0
172 27 -169 0
-172 169 0
-172 -27 0
173 -172 0
173 -171 0
173 -170 0
-173 170 171 172 0
174 28 -60 0
-174 -28 0
-174 60 0
175 -60 -173 0
-175 173 0
-175 60 0
176 28 -173 0
-176 173 0
-176 -28 0
177 -176 0
177 -175 0
177 -174 0
-177 174 175 176 0
178 29 -61 0
-178 -29 0
-178 61 0
179 -61 -177 0
-179 177 0
-179 61 0
180 29 -177 0
-180 177 0
-180 -29 0
181 -180 0
181 -179 0
181 -178 0
-181 178 179 180 0
182 30 -62 0
-182 -30 0
-182 62 0
183 -62 -181 0
-183 181 0
-183 62 0
184 30 -181 0
-184 181 0
-184 -30 0
185 -184 0
185 -183 0
185 -182 0
-185 182 183 184 0
186 31 -63 0
-186 -31 0
-186 63 0
187 -63 -185 0
-187 185 0
-187 63 0
188 31 -185 0
-188 185 0
-188 -31 0
189 -188 0
189 -187 0
189 -186 0
-189 186 187 188 0
190 32 -64 0
-190 -32 0
-190 64 0
191 -64 -189 0
-191 189 0
-191 64 0
192 32 -189 0
-192 189 0
-192 -32 0
193 -192 0
193 -191 0
193 -190 0
-193 -67 0
-193 190 191 192 0
195 0
-195 193 -194 0
196 1 -33 0
196 -1 33 0
-196 1 33 0
-196 -1 -33 0
197 2 -34 0
197 -2 34 0
-197 2 34 0
-197 -2 -34 0
198 3 -35 0
198 -3 35 0
-198 3 35 0
-198 -3 -35 0
199 4 -36 0
199 -4 36 0
-199 4 36 0
-199 -4 -36 0
200 5 -37 0
200 -5 37 0
-200 5 37 0
-200 -5 -37 0
201 6 -38 0
201 -6 38 0
-201 6 38 0
-201 -6 -38 0
202 7 -39 0
202 -7 39 0
-202 7 39 0
-202 -7 -39 0
203 8 -40 0
203 -8 40 0
-203 8 40 0
-203 -8 -40 0
204 9 -41 0
204 -9 41 0
-204 9 41 0
-204 -9 -41 0
205 10 -42 0
205 -10 42 0
-205 10 42 0
-205 -10 -42 0
206 11 -43 0
206 -11 43 0
-206 11 43 0
-206 -11 -43 0
207 12 -44 0
207 -12 44 0
-207 12 44 0
-207 -12 -44 0
208 13 -45 0
208 -13 45 0
-208 13 45 0
-208 -13 -45 0
209 14 -46 0
209 -14 46 0
-209 14 46 0
-209 -14 -46 0
210 15 -47 0
210 -15 47 0
-210 15 47 0
-210 -15 -47 0
211 16 -48 0
211 -16 48 0
-211 16 48 0
-211 -16 -48 0
212 17 -49 0
212 -17 49 0
-212 17 49 0
-212 -17 -49 0
213 18 -50 0
213 -18 50 0
-213 18 50 0
-213 -18 -50 0
214 19 -51 0
214 -19 51 0
-214 19 51 0
-214 -19 -51 0
215 20 -52 0
215 -20 52 0
-215 20 52 0
-215 -20 -52 0
216 21 -53 0
216 -21 53 0
-216 21 53 0
-216 -21 -53 0
217 22 -54 0
217 -22 54 0
-217 22 54 0
-217 -22 -54 0
218 23 -55 0
218 -23 55 0
-218 23 55 0
-218 -23 -55 0
219 24 -56 0
219 -24 56 0
-219 24 56 0
-219 -24 -56 0
220 25 -57 0
220 -25 57 0
-220 25 57 0
-220 -25 -57 0
221 26 -58 0
221 -26 58 0
-221 26 58 0
-221 -26 -58 0
222 27 -59 0
222 -27 59 0
-222 27 59 0
-222 -27 -59 0
223 28 -60 0
223 -28 60 0
-223 28 60 0
-223 -28 -60 0
224 29 -61 0
224 -29 61 0
-224 29 61 0
-224 -29 -61 0
225 30 -62 0
225 -30 62 0
-225 30 62 0
-225 -30 -62 0
226 31 -63 0
226 -31 63 0
-226 31 63 0
-226 -31 -63 0
227 32 -64 0
227 -32 64 0
-227 32 64 0
-227 -32 -64 0
228 196 197 198 199 200 201 202 203 204 205 206 207 208 209 210 211 212 213 214 215 216 217 218 219 220 221 222 223 224 225 226 227 0
-228 -227 0
-228 -226 0
-228 -225 0
-228 -224 0
-228 -223 0
-228 -222 0
-228 -221 0
-228 -220 0
-228 -219 0
-228 -218 0
-228 -217 0
-228 -216 0
-228 -215 0
-228 -214 0
-228 -213 0
-228 -212 0
-228 -211 0
-228 -210 0
-228 -209 0
-228 -208 0
-228 -207 0
-228 -206 0
-228 -205 0
-228 -204 0
-228 -203 0
-228 -202 0
-228 -201 0
-228 -200 0
-228 -199 0
-228 -198 0
-228 -197 0
-228 -196 0
293 229 -261 0
293 -229 261 0
-293 229 261 0
-293 -229 -261 0
294 230 -262 0
294 -230 262 0
-294 230 262 0
-294 -230 -262 0
295 231 -263 0
295 -231 263 0
-295 231 263 0
-295 -231 -263 0
296 232 -264 0
296 -232 264 0
-296 232 264 0
-296 -232 -264 0
297 233 -265 0
297 -233 265 0
-297 233 265 0
-297 -233 -265 0
298 234 -266 0
298 -234 266 0
-298 234 266 0
-298 -234 -266 0
299 235 -267 0
299 -235 267 0
-299 235 267 0
-299 -235 -267 0
300 236 -268 0
300 -236 268 0
-300 236 268 0
-300 -236 -268 0
301 237 -269 0
301 -237 269 0
-301 237 269 0
-301 -237 -269 0
302 238 -270 0
302 -238 270 0
-302 238 270 0
-302 -238 -270 0
303 239 -271 0
303 -239 271 0
-303 239 271 0
-303 -239 -271 0
304 240 -272 0
304 -240 272 0
-304 240 272 0
-304 -240 -272 0
305 241 -273 0
305 -241 273 0
-305 241 273 0
-305 -241 -273 0
306 242 -274 0
306 -242 274 0
-306 242 274 0
-306 -242 -274 0
307 243 -275 0
307 -243 275 0
-307 243 275 0
-307 -243 -275 0
308 244 -276 0
308 -244 276 0
-308 244 276 0
-308 -244 -276 0
309 245 -277 0
309 -245 277 0
-309 245 277 0
-309 -245 -277 0
310 246 -278 0
310 -246 278 0
-310 246 278 0
-310 -246 -278 0
311 247 -279 0
311 -247 279 0
-311 247 279 0
-311 -247 -279 0
312 248 -280 0
312 -248 280 0
-312 248 280 0
-312 -248 -280 0
313 249 -281 0
313 -249 281 0
-313 249 281 0
-313 -249 -281 0
314 250 -282 0
314 -250 282 0
-314 250 282 0
-314 -250 -282 0
315 251 -283 0
315 -251 283 0
-315 251 283 0
-315 -251 -283 0
316 252 -284 0
316 -252 284 0
-316 252 284 0
-316 -252 -284 0
317 253 -285 0
317 -253 285 0
-317 253 285 0
-317 -253 -285 0
318 254 -286 0
318 -254 286 0
-318 254 286 0
-318 -254 -286 0
319 255 -287 0
319 -255 287 0
-319 255 287 0
-319 -255 -287 0
320 256 -288 0
320 -256 288 0
-320 256 288 0
-320 -256 -288 0
321 257 -289 0
321 -257 289 0
-321 257 289 0
-321 -257 -289 0
322 258 -290 0
322 -258 290 0
-322 258 290 0
-322 -258 -290 0
323 259 -291 0
323 -259 291 0
-323 259 291 0
-323 -259 -291 0
324 260 -292 0
324 -260 292 0
-324 260 292 0
-324 -260 -292 0
325 -228 0
325 293 294 295 296 297 298 299 300 301 302 303 304 305 306 307 308 309 310 311 312 313 314 315 316 317 318 319 320 321 322 323 324 0
-325 -324 0
-325 -323 0
-325 -322 0
-325 -321 0
-325 -320 0
-325 -319 0
-325 -318 0
-325 -317 0
-325 -316 0
-325 -315 0
-325 -314 0
-325 -313 0
-325 -312 0
-325 -311 0
-325 -310 0
-325 -309 0
-325 -308 0
-325 -307 0
-325 -306 0
-325 -305 0
-325 -304 0
-325 -303 0
-325 -302 0
-325 -301 0
-325 -300 0
-325 -299 0
-325 -298 0
-325 -297 0
-325 -296 0
-325 -295 0
-325 -294 0
-325 -293 0
